http://materials.springer.com/isp/crystallographic/docs/sd_0541504
   4.138  4.138  28.640 
   .28867513459481288225      -0.50000    0.333333333       
   .28867513459481288225       0.50000    0.333333333    
  -.57735026918962576450       0.00000    0.333333333
 Bi Se
 2  3
Cart
 0.0 0.0  0.399
 0.0 0.0 -0.399
 0.0 0.0  0.206
 0.0 0.0 -0.206
 0.0 0.0  0.0

  0.00000000E+00  0.00000000E+00  0.00000000E+00
  0.00000000E+00  0.00000000E+00  0.00000000E+00
  0.00000000E+00  0.00000000E+00  0.00000000E+00
  0.00000000E+00  0.00000000E+00  0.00000000E+00
  0.00000000E+00  0.00000000E+00  0.00000000E+00
