generated by phonopy
   1.0
     6.4299998283000006    0.0000000000000000    0.0000000000000000
     0.0000000000000000    6.4299998283000006    0.0000000000000000
     0.0000000000000000    0.0000000000000000    6.4299998283000006
Pd Sb
   4    8
Direct
  0.0000000000000000  0.0000000000000000  0.0000000000000000
  0.4999999999999999  0.0000000000000000  0.4999999999999999
  0.0000000000000000  0.4999999999999999  0.4999999999999999
  0.4999999999999999  0.4999999999999999  0.0000000000000000
  0.3670000280000000  0.3670000280000000  0.3670000280000000
  0.6329999719999999  0.6329999719999999  0.6329999719999999
  0.1329999720000000  0.6329999719999999  0.8670000280000000
  0.8670000280000000  0.3670000280000000  0.1329999720000000
  0.6329999719999999  0.8670000280000000  0.1329999720000000
  0.3670000280000000  0.1329999720000000  0.8670000280000000
  0.8670000280000000  0.1329999720000000  0.6329999719999999
  0.1329999720000000  0.8670000280000000  0.3670000280000000
