RHL2 (rhombohedral alpha > 90) 
20
Line-mode
reciprocal
   0.0000   0.0000   0.0000   ! \Gamma
   0.5000   -0.5000   0.5000   ! Z
 
   0.5000   -0.5000   0.5000   ! Z
   0.5000   -0.5000   0.0000   ! F
 
   0.5000   -0.5000   0.0000   ! F
   0.0000    0.0000   0.0000   ! \Gamma

   0.0000   0.0000   0.0000   ! \Gamma
   0.5000   0.0000   0.0000   ! L
