generated by phonopy
   1.0
     2.2665000000000002    1.3085643851182867    3.9323333333333332
    -2.2665000000000002    1.3085643851182867    3.9323333333333332
     0.0000000000000000   -2.6171287702365733    3.9323333333333332
Bi
   2
Direct
  0.7659300000000000  0.7659300000000000  0.7659300000000000
  0.2340700000000000  0.2340700000000000  0.2340700000000000
